(declare-const x String)
(declare-const y String)
(declare-const m String)
(declare-const n String)
(assert (str.in.re x (re.* (re.range "0" "9"))))
(assert (= (str.to.int x) 1))
(assert (not (= x "")))
(assert (not (= x "0")))
(assert (not (= x "3")))
(assert (not (= x "T")))
(assert (not (= x "")))
(assert (not (= x "6")))
(assert (not (= x "z")))
(assert (not (= x "A")))
(assert (not (= x "_")))
(check-sat)
(get-model)
